Route #1: 1 37 9 22 13 33 11 6 41
Route #2: 1 31 23 29 20 28 14 55
Route #3: 1 38 4 15 18 35 34 17
Route #4: 1 26 42 30 19 49 51 45
Route #5: 1 5 8 43 32 27 21 47
Route #6: 1 52 3 16 12 39
Route #7: 1 54 48 40 50 10 36
Route #8: 1 7 44 46 2
Route #9: 1 53 25 24
cost 1303
